c In Weigthed Partial Max-SAT, the parameters line is 'p wcnf nbvar nbclauses top'
c Where p is the weight
c nbvar is the nu	mber of a variables appearing in the file (TYPEBITS +1)
c nbclauses is the exact number of clauses contained in the file
c see http://maxsat.ia.udl.cat/requirements/
p wcnf 11 192 2147483647
1 1 2 3 4 5 6 7 8 9 10 11 0
8689421339 -3 -4 -1 -2 -5 0
8689421339 3 -4 -1 -2 -5 0
8689421339 -3 4 -1 -2 -5 0
9689421339 3 4 -1 -2 -5 0
8689421339 -3 -4 1 -2 -5 0
9689421339 3 -4 1 -2 -5 0
9689421339 -3 4 1 -2 -5 0
9689421339 3 4 1 -2 -5 0
8689421339 -3 -4 -1 2 -5 0
9689421339 3 -4 -1 2 -5 0
9689421339 -3 4 -1 2 -5 0
9689421339 3 4 -1 2 -5 0
9689421339 -3 -4 1 2 -5 0
9689421339 3 -4 1 2 -5 0
9689421339 -3 4 1 2 -5 0
9689421339 3 4 1 2 -5 0
8689421339 -3 -4 -1 -2 5 0
9689421339 3 -4 -1 -2 5 0
9689421339 -3 4 -1 -2 5 0
9689421339 3 4 -1 -2 5 0
9689421339 -3 -4 1 -2 5 0
9689421339 3 -4 1 -2 5 0
9689421339 -3 4 1 -2 5 0
9689421339 3 4 1 -2 5 0
9689421339 -3 -4 -1 2 5 0
9689421339 3 -4 -1 2 5 0
9689421339 -3 4 -1 2 5 0
9689421339 3 4 -1 2 5 0
9689421339 -3 -4 1 2 5 0
9689421339 3 -4 1 2 5 0
9689421339 -3 4 1 2 5 0
9689421339 3 4 1 2 5 0
8689421339 -3 -4 -1 -2 -5 0
9689421339 3 -4 -1 -2 -5 0
9689421339 -3 4 -1 -2 -5 0
9689421339 3 4 -1 -2 -5 0
9689421339 -3 -4 1 -2 -5 0
9689421339 3 -4 1 -2 -5 0
9689421339 -3 4 1 -2 -5 0
9689421339 3 4 1 -2 -5 0
9689421339 -3 -4 -1 2 -5 0
9689421339 3 -4 -1 2 -5 0
9689421339 -3 4 -1 2 -5 0
9689421339 3 4 -1 2 -5 0
9689421339 -3 -4 1 2 -5 0
9689421339 3 -4 1 2 -5 0
9689421339 -3 4 1 2 -5 0
9689421339 3 4 1 2 -5 0
9689421339 -3 -4 -1 -2 5 0
9689421339 3 -4 -1 -2 5 0
9689421339 -3 4 -1 -2 5 0
9689421339 3 4 -1 -2 5 0
9689421339 -3 -4 1 -2 5 0
9689421339 3 -4 1 -2 5 0
9689421339 -3 4 1 -2 5 0
9689421339 3 4 1 -2 5 0
9689421339 -3 -4 -1 2 5 0
9689421339 3 -4 -1 2 5 0
9689421339 -3 4 -1 2 5 0
9689421339 3 4 -1 2 5 0
9689421339 -3 -4 1 2 5 0
9689421339 3 -4 1 2 5 0
9689421339 -3 4 1 2 5 0
9689421339 3 4 1 2 5 0
8689421339 -6 -7 -1 -2 -8 0
8689421339 6 -7 -1 -2 -8 0
8689421339 -6 7 -1 -2 -8 0
9689421339 6 7 -1 -2 -8 0
8689421339 -6 -7 1 -2 -8 0
9689421339 6 -7 1 -2 -8 0
9689421339 -6 7 1 -2 -8 0
9689421339 6 7 1 -2 -8 0
8689421339 -6 -7 -1 2 -8 0
9689421339 6 -7 -1 2 -8 0
9689421339 -6 7 -1 2 -8 0
9689421339 6 7 -1 2 -8 0
9689421339 -6 -7 1 2 -8 0
9689421339 6 -7 1 2 -8 0
9689421339 -6 7 1 2 -8 0
9689421339 6 7 1 2 -8 0
8689421339 -6 -7 -1 -2 8 0
9689421339 6 -7 -1 -2 8 0
9689421339 -6 7 -1 -2 8 0
9689421339 6 7 -1 -2 8 0
9689421339 -6 -7 1 -2 8 0
9689421339 6 -7 1 -2 8 0
9689421339 -6 7 1 -2 8 0
9689421339 6 7 1 -2 8 0
9689421339 -6 -7 -1 2 8 0
9689421339 6 -7 -1 2 8 0
9689421339 -6 7 -1 2 8 0
9689421339 6 7 -1 2 8 0
9689421339 -6 -7 1 2 8 0
9689421339 6 -7 1 2 8 0
9689421339 -6 7 1 2 8 0
9689421339 6 7 1 2 8 0
8689421339 -6 -7 -1 -2 -8 0
9689421339 6 -7 -1 -2 -8 0
9689421339 -6 7 -1 -2 -8 0
9689421339 6 7 -1 -2 -8 0
9689421339 -6 -7 1 -2 -8 0
9689421339 6 -7 1 -2 -8 0
9689421339 -6 7 1 -2 -8 0
9689421339 6 7 1 -2 -8 0
9689421339 -6 -7 -1 2 -8 0
9689421339 6 -7 -1 2 -8 0
9689421339 -6 7 -1 2 -8 0
9689421339 6 7 -1 2 -8 0
9689421339 -6 -7 1 2 -8 0
9689421339 6 -7 1 2 -8 0
9689421339 -6 7 1 2 -8 0
9689421339 6 7 1 2 -8 0
9689421339 -6 -7 -1 -2 8 0
9689421339 6 -7 -1 -2 8 0
9689421339 -6 7 -1 -2 8 0
9689421339 6 7 -1 -2 8 0
9689421339 -6 -7 1 -2 8 0
9689421339 6 -7 1 -2 8 0
9689421339 -6 7 1 -2 8 0
9689421339 6 7 1 -2 8 0
9689421339 -6 -7 -1 2 8 0
9689421339 6 -7 -1 2 8 0
9689421339 -6 7 -1 2 8 0
9689421339 6 7 -1 2 8 0
9689421339 -6 -7 1 2 8 0
9689421339 6 -7 1 2 8 0
9689421339 -6 7 1 2 8 0
9689421339 6 7 1 2 8 0
1689421339 -10 -9 -1 -2 -11 0
1689421339 10 -9 -1 -2 -11 0
1689421339 -10 9 -1 -2 -11 0
9689421339 10 9 -1 -2 -11 0
1689421339 -10 -9 1 -2 -11 0
9689421339 10 -9 1 -2 -11 0
9689421339 -10 9 1 -2 -11 0
9689421339 10 9 1 -2 -11 0
9689421339 -10 -9 -1 2 -11 0
9689421339 10 -9 -1 2 -11 0
9689421339 -10 9 -1 2 -11 0
9689421339 10 9 -1 2 -11 0
9689421339 -10 -9 1 2 -11 0
9689421339 10 -9 1 2 -11 0
9689421339 -10 9 1 2 -11 0
9689421339 10 9 1 2 -11 0
9689421339 -10 -9 -1 -2 11 0
9689421339 10 -9 -1 -2 11 0
9689421339 -10 9 -1 -2 11 0
9689421339 10 9 -1 -2 11 0
9689421339 -10 -9 1 -2 11 0
9689421339 10 -9 1 -2 11 0
9689421339 -10 9 1 -2 11 0
9689421339 10 9 1 -2 11 0
9689421339 -10 -9 -1 2 11 0
9689421339 10 -9 -1 2 11 0
9689421339 -10 9 -1 2 11 0
9689421339 10 9 -1 2 11 0
9689421339 -10 -9 1 2 11 0
9689421339 10 -9 1 2 11 0
9689421339 -10 9 1 2 11 0
9689421339 10 9 1 2 11 0
9689421339 -10 -9 -1 -2 -11 0
9689421339 10 -9 -1 -2 -11 0
9689421339 -10 9 -1 -2 -11 0
9689421339 10 9 -1 -2 -11 0
9689421339 -10 -9 1 -2 -11 0
9689421339 10 -9 1 -2 -11 0
9689421339 -10 9 1 -2 -11 0
9689421339 10 9 1 -2 -11 0
9689421339 -10 -9 -1 2 -11 0
9689421339 10 -9 -1 2 -11 0
9689421339 -10 9 -1 2 -11 0
9689421339 10 9 -1 2 -11 0
9689421339 -10 -9 1 2 -11 0
9689421339 10 -9 1 2 -11 0
9689421339 -10 9 1 2 -11 0
9689421339 10 9 1 2 -11 0
9689421339 -10 -9 -1 -2 11 0
9689421339 10 -9 -1 -2 11 0
9689421339 -10 9 -1 -2 11 0
9689421339 10 9 -1 -2 11 0
9689421339 -10 -9 1 -2 11 0
9689421339 10 -9 1 -2 11 0
9689421339 -10 9 1 -2 11 0
9689421339 10 9 1 -2 11 0
9689421339 -10 -9 -1 2 11 0
9689421339 10 -9 -1 2 11 0
9689421339 -10 9 -1 2 11 0
9689421339 10 9 -1 2 11 0
9689421339 -10 -9 1 2 11 0
9689421339 10 -9 1 2 11 0
9689421339 -10 9 1 2 11 0
9689421339 10 9 1 2 11 0
